unsat
(define-fun f ((x (_ BitVec 64))) (_ BitVec 64) (im (bvand #b0000000000000000000000000000000000000000000000000000000000000001 x) x (smol (bvor #b0000000000000000000000000000000000000000000000000000000000000001 x))))
0.31user 0.01system 0:00.33elapsed 99%CPU (0avgtext+0avgdata 52876maxresident)k
0inputs+8outputs (0major+8003minor)pagefaults 0swaps
